param set_len = 30;
param target_sum = 8485897800;
param values := [1] 730502956 [2] 410432164 [3] 1031587214 [4] 858643719 [5] 978352301 [6] 723741151 [7] 715328703 [8] 904516489 [9] 581569518 [10] 944822972 [11] 624167149 [12] 494730970 [13] 114362790 [14] 87943562 [15] 205399381 [16] 626303665 [17] 364231857 [18] 956322058 [19] 122689371 [20] 369214243 [21] 618205639 [22] 787284650 [23] 923718989 [24] 587603776 [25] 379998590 [26] 695378428 [27] 56012029 [28] 712799640 [29] 384052407 [30] 977684357 ;
